numOfMachines = 4;
numOfRobots = 2;
numOfJobs = 6;
maxOperations = 3;
operationsCount = [2,2,2,3,3,3];

operation = [
[<0,0,0>,<1,30,0>,<4,54,1>],
[<0,0,0>,<2,30,0>,<4,54,0>],
[<0,0,0>,<1,30,0>,<3,60,0>],
[<0,0,0>,<2,30,0>,<3,45,1>,<4,36,0>],
[<0,0,0>,<1,30,0>,<2,45,1>,<4,36,0>],
[<0,0,0>,<1,30,0>,<2,45,0>,<3,36,0>]
];